Route #1: 101 107 96 156 47 70 57 83 45 88 43 24
Route #2: 30 155 84 113 90 51 100 82 11 77 134 22
Route #3: 10 39 114 29 58 74 52 138 72 48 79 25
Route #4: 18 34 109 81 112 136 76 153 119 2 33 12
Route #5: 5 60 89 126 139 92 137 28 66 7 125 1
Route #6: 111 132 86 104 145 127 94 46 130 124 44 19
Route #7: 9 108 40 146 78 117 80 102 141 64 63 91
Route #8: 152 105 27 149 8 150 59 129 13 151 71 148
Route #9: 49 75 20 69 16 36 103 65 97 87 116 37
Route #10: 61 17 41 110 93 99 147 118 15 122 38 143
Route #11: 54 6 95 55 131 115 133 21 135 121 3 32
Route #12: 35 23 140 85 144 53 123 154 31 50 4 67
Route #13: 56 98 142 62 128 26 120 14 68 42 106 73
Cost 15558
